TSPLIB/results6.tsp
NAME : results6
COMMENT : a comment by the user
TYPE : TSP
DIMENSION : 45
EDGE_WEIGHT_TYPE : EXPLICIT
EDGE_WEIGHT_FORMAT: FULL_MATRIX
EDGE_WEIGHT_SECTION
0 0 75500 77771 77771 90863 78385 90841 56500 79147 73000 88469 88469 88810 79147 75500 75500 77771 77771 78385 78385 79147 79147 88469 88469 88810 90841 99109 91893 90863 0 9999999999 9999999999 9999999999 9999999999 9999999999 9999999999 9999999999 9999999999 9999999999 9999999999 9999999999 9999999999 9999999999 9999999999
0 0 0 52900 52900 58817 54600 59682 79147 56500 88469 73000 73000 73500 56500 0 0 52900 52900 54600 54600 56500 56500 73000 73000 73500 59682 76006 61446 58817 0 9999999999 9999999999 9999999999 9999999999 9999999999 9999999999 9999999999 9999999999 9999999999 9999999999 9999999999 9999999999 9999999999 9999999999
75500 0 0 0 52900 58817 54600 59682 79147 56500 88469 73000 73000 73500 56500 0 0 52900 52900 54600 54600 56500 56500 73000 73000 73500 59682 76006 61446 58817 9999999999 0 9999999999 9999999999 9999999999 9999999999 9999999999 9999999999 9999999999 9999999999 9999999999 9999999999 9999999999 9999999999 9999999999
77771 52900 0 0 0 53700 7208600 53309 75682 13208800 80795 60100 60100 60600 69400 52900 52900 0 0 7208600 7208600 13208800 13208800 60100 60100 60600 53309 64466 72435 53700 9999999999 0 9999999999 9999999999 9999999999 9999999999 9999999999 9999999999 9999999999 9999999999 9999999999 9999999999 9999999999 9999999999 9999999999
77771 52900 52900 0 0 0 7208600 53309 75682 13208800 80795 60100 60100 60600 69400 52900 52900 0 0 7208600 7208600 13208800 13208800 60100 60100 60600 53309 64466 72435 53700 9999999999 9999999999 0 9999999999 9999999999 9999999999 9999999999 9999999999 9999999999 9999999999 9999999999 9999999999 9999999999 9999999999 9999999999
90863 58817 58817 53700 0 0 53805 7435990 89331 54165 93147 64324 64324 64739 72435 58817 58817 53700 53700 53805 53805 54165 54165 64324 64324 64739 7435990 60606 69400 0 9999999999 9999999999 0 9999999999 9999999999 9999999999 9999999999 9999999999 9999999999 9999999999 9999999999 9999999999 9999999999 9999999999 9999999999
78385 54600 54600 7208600 7208600 53805 0 0 75550 7840200 79985 58400 58400 58900 71100 54600 54600 7208600 7208600 0 0 7840200 7840200 58400 58400 58900 53200 63053 73983 53805 9999999999 9999999999 9999999999 0 9999999999 9999999999 9999999999 9999999999 9999999999 9999999999 9999999999 9999999999 9999999999 9999999999 9999999999
90841 59682 59682 53309 53309 7435990 0 0 88737 53336 92060 62645 62645 63053 73785 59682 59682 53309 53309 53200 53200 53336 53336 62645 62645 63053 0 58900 71104 7435990 9999999999 9999999999 9999999999 0 9999999999 9999999999 9999999999 9999999999 9999999999 9999999999 9999999999 9999999999 9999999999 9999999999 9999999999
56500 79147 79147 75682 75682 89331 75550 88737 0 0 56500 79147 79147 79360 88469 79147 79147 75682 75682 75550 75550 75500 75500 79147 79147 79360 88737 91581 99242 89331 9999999999 9999999999 9999999999 9999999999 0 9999999999 9999999999 9999999999 9999999999 9999999999 9999999999 9999999999 9999999999 9999999999 9999999999
79147 56500 56500 13208800 13208800 54165 7840200 53336 0 0 79147 56500 56500 57000 73000 56500 56500 13208800 13208800 7840200 7840200 0 0 56500 56500 57000 53336 61523 75730 54165 9999999999 9999999999 9999999999 9999999999 0 9999999999 9999999999 9999999999 9999999999 9999999999 9999999999 9999999999 9999999999 9999999999 9999999999
73000 88469 88469 80795 80795 93147 79985 92060 56500 79147 0 0 75500 75503 100913 88469 88469 80795 80795 79985 79985 79147 79147 75500 75500 75503 92060 88702 109791 93147 9999999999 9999999999 9999999999 9999999999 9999999999 0 9999999999 9999999999 9999999999 9999999999 9999999999 9999999999 9999999999 9999999999 9999999999
88469 73000 73000 60100 60100 64324 58400 62645 79147 56500 0 0 0 20000 89500 73000 73000 60100 60100 58400 58400 56500 56500 0 0 20000 62645 53209 91360 64324 9999999999 9999999999 9999999999 9999999999 9999999999 0 9999999999 9999999999 9999999999 9999999999 9999999999 9999999999 9999999999 9999999999 9999999999
88469 73000 73000 60100 60100 64324 58400 62645 79147 56500 75500 0 0 0 89500 73000 73000 60100 60100 58400 58400 56500 56500 0 0 20000 62645 53209 91360 64324 9999999999 9999999999 9999999999 9999999999 9999999999 9999999999 0 9999999999 9999999999 9999999999 9999999999 9999999999 9999999999 9999999999 9999999999
88810 73500 73500 60600 60600 64739 58900 63053 79360 57000 75503 20000 0 0 90000 73500 73500 60600 60600 58900 58900 57000 57000 20000 20000 0 63053 53200 91842 64739 9999999999 9999999999 9999999999 9999999999 9999999999 9999999999 0 9999999999 9999999999 9999999999 9999999999 9999999999 9999999999 9999999999 9999999999
79147 56500 56500 69400 69400 72435 71100 73785 88469 73000 100913 89500 89500 90000 0 0 56500 69400 69400 71100 71100 73000 73000 89500 89500 90000 73785 91713 53700 72435 9999999999 9999999999 9999999999 9999999999 9999999999 9999999999 9999999999 0 9999999999 9999999999 9999999999 9999999999 9999999999 9999999999 9999999999
75500 0 0 52900 52900 58817 54600 59682 79147 56500 88469 73000 73000 73500 0 0 0 52900 52900 54600 54600 56500 56500 73000 73000 73500 59682 76006 61446 58817 9999999999 9999999999 9999999999 9999999999 9999999999 9999999999 9999999999 0 9999999999 9999999999 9999999999 9999999999 9999999999 9999999999 9999999999
75500 0 0 52900 52900 58817 54600 59682 79147 56500 88469 73000 73000 73500 56500 0 0 0 52900 54600 54600 56500 56500 73000 73000 73500 59682 76006 61446 58817 9999999999 9999999999 9999999999 9999999999 9999999999 9999999999 9999999999 9999999999 0 9999999999 9999999999 9999999999 9999999999 9999999999 9999999999
77771 52900 52900 0 0 53700 7208600 53309 75682 13208800 80795 60100 60100 60600 69400 52900 0 0 0 7208600 7208600 13208800 13208800 60100 60100 60600 53309 64466 72435 53700 9999999999 9999999999 9999999999 9999999999 9999999999 9999999999 9999999999 9999999999 0 9999999999 9999999999 9999999999 9999999999 9999999999 9999999999
77771 52900 52900 0 0 53700 7208600 53309 75682 13208800 80795 60100 60100 60600 69400 52900 52900 0 0 0 7208600 13208800 13208800 60100 60100 60600 53309 64466 72435 53700 9999999999 9999999999 9999999999 9999999999 9999999999 9999999999 9999999999 9999999999 9999999999 0 9999999999 9999999999 9999999999 9999999999 9999999999
78385 54600 54600 7208600 7208600 53805 0 53200 75550 7840200 79985 58400 58400 58900 71100 54600 54600 7208600 0 0 0 7840200 7840200 58400 58400 58900 53200 63053 73983 53805 9999999999 9999999999 9999999999 9999999999 9999999999 9999999999 9999999999 9999999999 9999999999 0 9999999999 9999999999 9999999999 9999999999 9999999999
78385 54600 54600 7208600 7208600 53805 0 53200 75550 7840200 79985 58400 58400 58900 71100 54600 54600 7208600 7208600 0 0 0 7840200 58400 58400 58900 53200 63053 73983 53805 9999999999 9999999999 9999999999 9999999999 9999999999 9999999999 9999999999 9999999999 9999999999 9999999999 0 9999999999 9999999999 9999999999 9999999999
79147 56500 56500 13208800 13208800 54165 7840200 53336 75500 0 79147 56500 56500 57000 73000 56500 56500 13208800 13208800 7840200 0 0 0 56500 56500 57000 53336 61523 75730 54165 9999999999 9999999999 9999999999 9999999999 9999999999 9999999999 9999999999 9999999999 9999999999 9999999999 0 9999999999 9999999999 9999999999 9999999999
79147 56500 56500 13208800 13208800 54165 7840200 53336 75500 0 79147 56500 56500 57000 73000 56500 56500 13208800 13208800 7840200 7840200 0 0 0 56500 57000 53336 61523 75730 54165 9999999999 9999999999 9999999999 9999999999 9999999999 9999999999 9999999999 9999999999 9999999999 9999999999 9999999999 0 9999999999 9999999999 9999999999
88469 73000 73000 60100 60100 64324 58400 62645 79147 56500 75500 0 0 20000 89500 73000 73000 60100 60100 58400 58400 56500 0 0 0 20000 62645 53209 91360 64324 9999999999 9999999999 9999999999 9999999999 9999999999 9999999999 9999999999 9999999999 9999999999 9999999999 9999999999 0 9999999999 9999999999 9999999999
88469 73000 73000 60100 60100 64324 58400 62645 79147 56500 75500 0 0 20000 89500 73000 73000 60100 60100 58400 58400 56500 56500 0 0 0 62645 53209 91360 64324 9999999999 9999999999 9999999999 9999999999 9999999999 9999999999 9999999999 9999999999 9999999999 9999999999 9999999999 9999999999 0 9999999999 9999999999
88810 73500 73500 60600 60600 64739 58900 63053 79360 57000 75503 20000 20000 0 90000 73500 73500 60600 60600 58900 58900 57000 57000 20000 0 0 63053 53200 91842 64739 9999999999 9999999999 9999999999 9999999999 9999999999 9999999999 9999999999 9999999999 9999999999 9999999999 9999999999 9999999999 0 9999999999 9999999999
90841 59682 59682 53309 53309 7435990 53200 0 88737 53336 92060 62645 62645 63053 73785 59682 59682 53309 53309 53200 53200 53336 53336 62645 62645 63053 0 0 71104 7435990 9999999999 9999999999 9999999999 9999999999 9999999999 9999999999 9999999999 9999999999 9999999999 9999999999 9999999999 9999999999 9999999999 0 9999999999
99109 76006 76006 64466 64466 60606 63053 58900 91581 61523 88702 53209 53209 53200 91713 76006 76006 64466 64466 63053 63053 61523 61523 53209 53209 53200 0 0 90002 60606 9999999999 9999999999 9999999999 9999999999 9999999999 9999999999 9999999999 9999999999 9999999999 9999999999 9999999999 9999999999 9999999999 0 9999999999
91893 61446 61446 72435 72435 69400 73983 71104 99242 75730 109791 91360 91360 91842 53700 61446 61446 72435 72435 73983 73983 75730 75730 91360 91360 91842 71104 90002 0 0 9999999999 9999999999 9999999999 9999999999 9999999999 9999999999 9999999999 9999999999 9999999999 9999999999 9999999999 9999999999 9999999999 9999999999 0
90863 58817 58817 53700 53700 0 53805 7435990 89331 54165 93147 64324 64324 64739 72435 58817 58817 53700 53700 53805 53805 54165 54165 64324 64324 64739 7435990 60606 0 0 9999999999 9999999999 9999999999 9999999999 9999999999 9999999999 9999999999 9999999999 9999999999 9999999999 9999999999 9999999999 9999999999 9999999999 0
0 0 9999999999 9999999999 9999999999 9999999999 9999999999 9999999999 9999999999 9999999999 9999999999 9999999999 9999999999 9999999999 9999999999 9999999999 9999999999 9999999999 9999999999 9999999999 9999999999 9999999999 9999999999 9999999999 9999999999 9999999999 9999999999 9999999999 9999999999 9999999999 0 9999999999 9999999999 9999999999 9999999999 9999999999 9999999999 9999999999 9999999999 9999999999 9999999999 9999999999 9999999999 9999999999 9999999999
9999999999 9999999999 0 0 9999999999 9999999999 9999999999 9999999999 9999999999 9999999999 9999999999 9999999999 9999999999 9999999999 9999999999 9999999999 9999999999 9999999999 9999999999 9999999999 9999999999 9999999999 9999999999 9999999999 9999999999 9999999999 9999999999 9999999999 9999999999 9999999999 9999999999 0 9999999999 9999999999 9999999999 9999999999 9999999999 9999999999 9999999999 9999999999 9999999999 9999999999 9999999999 9999999999 9999999999
9999999999 9999999999 9999999999 9999999999 0 0 9999999999 9999999999 9999999999 9999999999 9999999999 9999999999 9999999999 9999999999 9999999999 9999999999 9999999999 9999999999 9999999999 9999999999 9999999999 9999999999 9999999999 9999999999 9999999999 9999999999 9999999999 9999999999 9999999999 9999999999 9999999999 9999999999 0 9999999999 9999999999 9999999999 9999999999 9999999999 9999999999 9999999999 9999999999 9999999999 9999999999 9999999999 9999999999
9999999999 9999999999 9999999999 9999999999 9999999999 9999999999 0 0 9999999999 9999999999 9999999999 9999999999 9999999999 9999999999 9999999999 9999999999 9999999999 9999999999 9999999999 9999999999 9999999999 9999999999 9999999999 9999999999 9999999999 9999999999 9999999999 9999999999 9999999999 9999999999 9999999999 9999999999 9999999999 0 9999999999 9999999999 9999999999 9999999999 9999999999 9999999999 9999999999 9999999999 9999999999 9999999999 9999999999
9999999999 9999999999 9999999999 9999999999 9999999999 9999999999 9999999999 9999999999 0 0 9999999999 9999999999 9999999999 9999999999 9999999999 9999999999 9999999999 9999999999 9999999999 9999999999 9999999999 9999999999 9999999999 9999999999 9999999999 9999999999 9999999999 9999999999 9999999999 9999999999 9999999999 9999999999 9999999999 9999999999 0 9999999999 9999999999 9999999999 9999999999 9999999999 9999999999 9999999999 9999999999 9999999999 9999999999
9999999999 9999999999 9999999999 9999999999 9999999999 9999999999 9999999999 9999999999 9999999999 9999999999 0 0 9999999999 9999999999 9999999999 9999999999 9999999999 9999999999 9999999999 9999999999 9999999999 9999999999 9999999999 9999999999 9999999999 9999999999 9999999999 9999999999 9999999999 9999999999 9999999999 9999999999 9999999999 9999999999 9999999999 0 9999999999 9999999999 9999999999 9999999999 9999999999 9999999999 9999999999 9999999999 9999999999
9999999999 9999999999 9999999999 9999999999 9999999999 9999999999 9999999999 9999999999 9999999999 9999999999 9999999999 9999999999 0 0 9999999999 9999999999 9999999999 9999999999 9999999999 9999999999 9999999999 9999999999 9999999999 9999999999 9999999999 9999999999 9999999999 9999999999 9999999999 9999999999 9999999999 9999999999 9999999999 9999999999 9999999999 9999999999 0 9999999999 9999999999 9999999999 9999999999 9999999999 9999999999 9999999999 9999999999
9999999999 9999999999 9999999999 9999999999 9999999999 9999999999 9999999999 9999999999 9999999999 9999999999 9999999999 9999999999 9999999999 9999999999 0 0 9999999999 9999999999 9999999999 9999999999 9999999999 9999999999 9999999999 9999999999 9999999999 9999999999 9999999999 9999999999 9999999999 9999999999 9999999999 9999999999 9999999999 9999999999 9999999999 9999999999 9999999999 0 9999999999 9999999999 9999999999 9999999999 9999999999 9999999999 9999999999
9999999999 9999999999 9999999999 9999999999 9999999999 9999999999 9999999999 9999999999 9999999999 9999999999 9999999999 9999999999 9999999999 9999999999 9999999999 9999999999 0 0 9999999999 9999999999 9999999999 9999999999 9999999999 9999999999 9999999999 9999999999 9999999999 9999999999 9999999999 9999999999 9999999999 9999999999 9999999999 9999999999 9999999999 9999999999 9999999999 9999999999 0 9999999999 9999999999 9999999999 9999999999 9999999999 9999999999
9999999999 9999999999 9999999999 9999999999 9999999999 9999999999 9999999999 9999999999 9999999999 9999999999 9999999999 9999999999 9999999999 9999999999 9999999999 9999999999 9999999999 9999999999 0 0 9999999999 9999999999 9999999999 9999999999 9999999999 9999999999 9999999999 9999999999 9999999999 9999999999 9999999999 9999999999 9999999999 9999999999 9999999999 9999999999 9999999999 9999999999 9999999999 0 9999999999 9999999999 9999999999 9999999999 9999999999
9999999999 9999999999 9999999999 9999999999 9999999999 9999999999 9999999999 9999999999 9999999999 9999999999 9999999999 9999999999 9999999999 9999999999 9999999999 9999999999 9999999999 9999999999 9999999999 9999999999 0 0 9999999999 9999999999 9999999999 9999999999 9999999999 9999999999 9999999999 9999999999 9999999999 9999999999 9999999999 9999999999 9999999999 9999999999 9999999999 9999999999 9999999999 9999999999 0 9999999999 9999999999 9999999999 9999999999
9999999999 9999999999 9999999999 9999999999 9999999999 9999999999 9999999999 9999999999 9999999999 9999999999 9999999999 9999999999 9999999999 9999999999 9999999999 9999999999 9999999999 9999999999 9999999999 9999999999 9999999999 9999999999 0 0 9999999999 9999999999 9999999999 9999999999 9999999999 9999999999 9999999999 9999999999 9999999999 9999999999 9999999999 9999999999 9999999999 9999999999 9999999999 9999999999 9999999999 0 9999999999 9999999999 9999999999
9999999999 9999999999 9999999999 9999999999 9999999999 9999999999 9999999999 9999999999 9999999999 9999999999 9999999999 9999999999 9999999999 9999999999 9999999999 9999999999 9999999999 9999999999 9999999999 9999999999 9999999999 9999999999 9999999999 9999999999 0 0 9999999999 9999999999 9999999999 9999999999 9999999999 9999999999 9999999999 9999999999 9999999999 9999999999 9999999999 9999999999 9999999999 9999999999 9999999999 9999999999 0 9999999999 9999999999
9999999999 9999999999 9999999999 9999999999 9999999999 9999999999 9999999999 9999999999 9999999999 9999999999 9999999999 9999999999 9999999999 9999999999 9999999999 9999999999 9999999999 9999999999 9999999999 9999999999 9999999999 9999999999 9999999999 9999999999 9999999999 9999999999 0 0 9999999999 9999999999 9999999999 9999999999 9999999999 9999999999 9999999999 9999999999 9999999999 9999999999 9999999999 9999999999 9999999999 9999999999 9999999999 0 9999999999
9999999999 9999999999 9999999999 9999999999 9999999999 9999999999 9999999999 9999999999 9999999999 9999999999 9999999999 9999999999 9999999999 9999999999 9999999999 9999999999 9999999999 9999999999 9999999999 9999999999 9999999999 9999999999 9999999999 9999999999 9999999999 9999999999 9999999999 9999999999 0 0 9999999999 9999999999 9999999999 9999999999 9999999999 9999999999 9999999999 9999999999 9999999999 9999999999 9999999999 9999999999 9999999999 9999999999 0
EOF
